; benchmark generated from python API
(set-info :status unknown)
(declare-fun cell_1_7 () Int)
(declare-fun cell_1_8 () Int)
(declare-fun cell_2_1 () Int)
(declare-fun cell_2_4 () Int)
(declare-fun cell_3_2 () Int)
(declare-fun cell_3_4 () Int)
(declare-fun cell_4_6 () Int)
(declare-fun cell_4_8 () Int)
(declare-fun cell_5_2 () Int)
(declare-fun cell_5_3 () Int)
(declare-fun cell_6_6 () Int)
(declare-fun cell_7_5 () Int)
(declare-fun cell_8_9 () Int)
(declare-fun cell_9_1 () Int)
(declare-fun cell_1_1 () Int)
(declare-fun cell_3_1 () Int)
(declare-fun cell_4_1 () Int)
(declare-fun cell_5_1 () Int)
(declare-fun cell_6_1 () Int)
(declare-fun cell_7_1 () Int)
(declare-fun cell_8_1 () Int)
(declare-fun cell_1_2 () Int)
(declare-fun cell_2_2 () Int)
(declare-fun cell_4_2 () Int)
(declare-fun cell_6_2 () Int)
(declare-fun cell_7_2 () Int)
(declare-fun cell_8_2 () Int)
(declare-fun cell_9_2 () Int)
(declare-fun cell_1_3 () Int)
(declare-fun cell_2_3 () Int)
(declare-fun cell_3_3 () Int)
(declare-fun cell_4_3 () Int)
(declare-fun cell_6_3 () Int)
(declare-fun cell_7_3 () Int)
(declare-fun cell_8_3 () Int)
(declare-fun cell_9_3 () Int)
(declare-fun cell_1_4 () Int)
(declare-fun cell_4_4 () Int)
(declare-fun cell_5_4 () Int)
(declare-fun cell_6_4 () Int)
(declare-fun cell_7_4 () Int)
(declare-fun cell_8_4 () Int)
(declare-fun cell_9_4 () Int)
(declare-fun cell_1_5 () Int)
(declare-fun cell_2_5 () Int)
(declare-fun cell_3_5 () Int)
(declare-fun cell_4_5 () Int)
(declare-fun cell_5_5 () Int)
(declare-fun cell_6_5 () Int)
(declare-fun cell_8_5 () Int)
(declare-fun cell_9_5 () Int)
(declare-fun cell_1_6 () Int)
(declare-fun cell_2_6 () Int)
(declare-fun cell_3_6 () Int)
(declare-fun cell_5_6 () Int)
(declare-fun cell_7_6 () Int)
(declare-fun cell_8_6 () Int)
(declare-fun cell_9_6 () Int)
(declare-fun cell_2_7 () Int)
(declare-fun cell_3_7 () Int)
(declare-fun cell_4_7 () Int)
(declare-fun cell_5_7 () Int)
(declare-fun cell_6_7 () Int)
(declare-fun cell_7_7 () Int)
(declare-fun cell_8_7 () Int)
(declare-fun cell_9_7 () Int)
(declare-fun cell_2_8 () Int)
(declare-fun cell_3_8 () Int)
(declare-fun cell_5_8 () Int)
(declare-fun cell_6_8 () Int)
(declare-fun cell_7_8 () Int)
(declare-fun cell_8_8 () Int)
(declare-fun cell_9_8 () Int)
(declare-fun cell_1_9 () Int)
(declare-fun cell_2_9 () Int)
(declare-fun cell_3_9 () Int)
(declare-fun cell_4_9 () Int)
(declare-fun cell_5_9 () Int)
(declare-fun cell_6_9 () Int)
(declare-fun cell_7_9 () Int)
(declare-fun cell_9_9 () Int)
(assert
 (= cell_1_7 1))
(assert
 (= cell_1_8 2))
(assert
 (= cell_2_1 2))
(assert
 (= cell_2_4 1))
(assert
 (= cell_3_2 1))
(assert
 (= cell_3_4 2))
(assert
 (= cell_4_6 2))
(assert
 (= cell_4_8 1))
(assert
 (= cell_5_2 2))
(assert
 (= cell_5_3 1))
(assert
 (= cell_6_6 1))
(assert
 (= cell_7_5 1))
(assert
 (= cell_8_9 1))
(assert
 (= cell_9_1 1))
(assert
 (let (($x3149 (= cell_1_1 9)))
 (let (($x7931 (= cell_1_1 8)))
 (let (($x1743 (= cell_1_1 7)))
 (let (($x1512 (= cell_1_1 6)))
 (let (($x33 (= cell_1_1 5)))
 (let (($x9389 (= cell_1_1 4)))
 (let (($x5314 (= cell_1_1 3)))
 (let (($x4863 (= cell_1_1 2)))
 (let (($x3600 (= cell_1_1 1)))
 (or $x3600 $x4863 $x5314 $x9389 $x33 $x1512 $x1743 $x7931 $x3149)))))))))))
(assert
 (let (($x9284 (= cell_2_1 2)))
 (or (= cell_2_1 1) $x9284 (= cell_2_1 3) (= cell_2_1 4) (= cell_2_1 5) (= cell_2_1 6) (= cell_2_1 7) (= cell_2_1 8) (= cell_2_1 9))))
(assert
 (let (($x4930 (= cell_3_1 9)))
 (let (($x6457 (= cell_3_1 8)))
 (let (($x1293 (= cell_3_1 7)))
 (let (($x2550 (= cell_3_1 6)))
 (let (($x6052 (= cell_3_1 5)))
 (let (($x313 (= cell_3_1 4)))
 (let (($x9951 (= cell_3_1 3)))
 (let (($x7129 (= cell_3_1 2)))
 (let (($x8061 (= cell_3_1 1)))
 (or $x8061 $x7129 $x9951 $x313 $x6052 $x2550 $x1293 $x6457 $x4930)))))))))))
(assert
 (let (($x7367 (= cell_4_1 9)))
 (let (($x10057 (= cell_4_1 8)))
 (let (($x1260 (= cell_4_1 7)))
 (let (($x672 (= cell_4_1 6)))
 (let (($x7487 (= cell_4_1 5)))
 (let (($x2011 (= cell_4_1 4)))
 (let (($x5315 (= cell_4_1 3)))
 (let (($x2528 (= cell_4_1 2)))
 (let (($x2336 (= cell_4_1 1)))
 (or $x2336 $x2528 $x5315 $x2011 $x7487 $x672 $x1260 $x10057 $x7367)))))))))))
(assert
 (let (($x6362 (= cell_5_1 9)))
 (let (($x1330 (= cell_5_1 8)))
 (let (($x2064 (= cell_5_1 7)))
 (let (($x7915 (= cell_5_1 6)))
 (let (($x1697 (= cell_5_1 5)))
 (let (($x21 (= cell_5_1 4)))
 (let (($x8410 (= cell_5_1 3)))
 (let (($x8928 (= cell_5_1 2)))
 (let (($x491 (= cell_5_1 1)))
 (or $x491 $x8928 $x8410 $x21 $x1697 $x7915 $x2064 $x1330 $x6362)))))))))))
(assert
 (let (($x6500 (= cell_6_1 9)))
 (let (($x4952 (= cell_6_1 8)))
 (let (($x8601 (= cell_6_1 7)))
 (let (($x6240 (= cell_6_1 6)))
 (let (($x4411 (= cell_6_1 5)))
 (let (($x9812 (= cell_6_1 4)))
 (let (($x6842 (= cell_6_1 3)))
 (let (($x2581 (= cell_6_1 2)))
 (let (($x6126 (= cell_6_1 1)))
 (or $x6126 $x2581 $x6842 $x9812 $x4411 $x6240 $x8601 $x4952 $x6500)))))))))))
(assert
 (let (($x1046 (= cell_7_1 9)))
 (let (($x4591 (= cell_7_1 8)))
 (let (($x5055 (= cell_7_1 7)))
 (let (($x9853 (= cell_7_1 6)))
 (let (($x9055 (= cell_7_1 5)))
 (let (($x9032 (= cell_7_1 4)))
 (let (($x9083 (= cell_7_1 3)))
 (let (($x2746 (= cell_7_1 2)))
 (let (($x7069 (= cell_7_1 1)))
 (or $x7069 $x2746 $x9083 $x9032 $x9055 $x9853 $x5055 $x4591 $x1046)))))))))))
(assert
 (let (($x46 (= cell_8_1 9)))
 (let (($x7240 (= cell_8_1 8)))
 (let (($x4124 (= cell_8_1 7)))
 (let (($x6800 (= cell_8_1 6)))
 (let (($x9868 (= cell_8_1 5)))
 (let (($x3399 (= cell_8_1 4)))
 (let (($x3203 (= cell_8_1 3)))
 (let (($x2896 (= cell_8_1 2)))
 (let (($x3903 (= cell_8_1 1)))
 (or $x3903 $x2896 $x3203 $x3399 $x9868 $x6800 $x4124 $x7240 $x46)))))))))))
(assert
 (let (($x7331 (= cell_9_1 1)))
 (or $x7331 (= cell_9_1 2) (= cell_9_1 3) (= cell_9_1 4) (= cell_9_1 5) (= cell_9_1 6) (= cell_9_1 7) (= cell_9_1 8) (= cell_9_1 9))))
(assert
 (let (($x4096 (= cell_1_2 9)))
 (let (($x6729 (= cell_1_2 8)))
 (let (($x6346 (= cell_1_2 7)))
 (let (($x6371 (= cell_1_2 6)))
 (let (($x2582 (= cell_1_2 5)))
 (let (($x2472 (= cell_1_2 4)))
 (let (($x1568 (= cell_1_2 3)))
 (let (($x1634 (= cell_1_2 2)))
 (let (($x3725 (= cell_1_2 1)))
 (or $x3725 $x1634 $x1568 $x2472 $x2582 $x6371 $x6346 $x6729 $x4096)))))))))))
(assert
 (let (($x9437 (= cell_2_2 9)))
 (let (($x4112 (= cell_2_2 8)))
 (let (($x3184 (= cell_2_2 7)))
 (let (($x5255 (= cell_2_2 6)))
 (let (($x5372 (= cell_2_2 5)))
 (let (($x4101 (= cell_2_2 4)))
 (let (($x956 (= cell_2_2 3)))
 (let (($x6924 (= cell_2_2 2)))
 (let (($x6561 (= cell_2_2 1)))
 (or $x6561 $x6924 $x956 $x4101 $x5372 $x5255 $x3184 $x4112 $x9437)))))))))))
(assert
 (let (($x7059 (= cell_3_2 1)))
 (or $x7059 (= cell_3_2 2) (= cell_3_2 3) (= cell_3_2 4) (= cell_3_2 5) (= cell_3_2 6) (= cell_3_2 7) (= cell_3_2 8) (= cell_3_2 9))))
(assert
 (let (($x10138 (= cell_4_2 9)))
 (let (($x3922 (= cell_4_2 8)))
 (let (($x8730 (= cell_4_2 7)))
 (let (($x4123 (= cell_4_2 6)))
 (let (($x8367 (= cell_4_2 5)))
 (let (($x9757 (= cell_4_2 4)))
 (let (($x9635 (= cell_4_2 3)))
 (let (($x9469 (= cell_4_2 2)))
 (let (($x4170 (= cell_4_2 1)))
 (or $x4170 $x9469 $x9635 $x9757 $x8367 $x4123 $x8730 $x3922 $x10138)))))))))))
(assert
 (let (($x385 (= cell_5_2 2)))
 (or (= cell_5_2 1) $x385 (= cell_5_2 3) (= cell_5_2 4) (= cell_5_2 5) (= cell_5_2 6) (= cell_5_2 7) (= cell_5_2 8) (= cell_5_2 9))))
(assert
 (let (($x1158 (= cell_6_2 9)))
 (let (($x7728 (= cell_6_2 8)))
 (let (($x6059 (= cell_6_2 7)))
 (let (($x6521 (= cell_6_2 6)))
 (let (($x8766 (= cell_6_2 5)))
 (let (($x6113 (= cell_6_2 4)))
 (let (($x8751 (= cell_6_2 3)))
 (let (($x6238 (= cell_6_2 2)))
 (let (($x5282 (= cell_6_2 1)))
 (or $x5282 $x6238 $x8751 $x6113 $x8766 $x6521 $x6059 $x7728 $x1158)))))))))))
(assert
 (let (($x4223 (= cell_7_2 9)))
 (let (($x6576 (= cell_7_2 8)))
 (let (($x2380 (= cell_7_2 7)))
 (let (($x6850 (= cell_7_2 6)))
 (let (($x4955 (= cell_7_2 5)))
 (let (($x5878 (= cell_7_2 4)))
 (let (($x2432 (= cell_7_2 3)))
 (let (($x10068 (= cell_7_2 2)))
 (let (($x7420 (= cell_7_2 1)))
 (or $x7420 $x10068 $x2432 $x5878 $x4955 $x6850 $x2380 $x6576 $x4223)))))))))))
(assert
 (let (($x8144 (= cell_8_2 9)))
 (let (($x1910 (= cell_8_2 8)))
 (let (($x10077 (= cell_8_2 7)))
 (let (($x6499 (= cell_8_2 6)))
 (let (($x8515 (= cell_8_2 5)))
 (let (($x8961 (= cell_8_2 4)))
 (let (($x8311 (= cell_8_2 3)))
 (let (($x1548 (= cell_8_2 2)))
 (let (($x518 (= cell_8_2 1)))
 (or $x518 $x1548 $x8311 $x8961 $x8515 $x6499 $x10077 $x1910 $x8144)))))))))))
(assert
 (let (($x1003 (= cell_9_2 2)))
 (let (($x7445 (= cell_9_2 1)))
 (or $x7445 $x1003 (= cell_9_2 3) (= cell_9_2 4) (= cell_9_2 5) (= cell_9_2 6) (= cell_9_2 7) (= cell_9_2 8) (= cell_9_2 9)))))
(assert
 (let (($x264 (= cell_1_3 9)))
 (let (($x3546 (= cell_1_3 8)))
 (let (($x9344 (= cell_1_3 7)))
 (let (($x9287 (= cell_1_3 6)))
 (let (($x4593 (= cell_1_3 5)))
 (let (($x4812 (= cell_1_3 4)))
 (let (($x5502 (= cell_1_3 3)))
 (let (($x5054 (= cell_1_3 2)))
 (let (($x4835 (= cell_1_3 1)))
 (or $x4835 $x5054 $x5502 $x4812 $x4593 $x9287 $x9344 $x3546 $x264)))))))))))
(assert
 (let (($x2649 (= cell_2_3 9)))
 (let (($x7680 (= cell_2_3 8)))
 (let (($x5156 (= cell_2_3 7)))
 (let (($x4118 (= cell_2_3 6)))
 (let (($x7766 (= cell_2_3 5)))
 (let (($x8070 (= cell_2_3 4)))
 (let (($x6930 (= cell_2_3 3)))
 (let (($x6926 (= cell_2_3 2)))
 (let (($x7858 (= cell_2_3 1)))
 (or $x7858 $x6926 $x6930 $x8070 $x7766 $x4118 $x5156 $x7680 $x2649)))))))))))
(assert
 (let (($x297 (= cell_3_3 9)))
 (let (($x6162 (= cell_3_3 8)))
 (let (($x8206 (= cell_3_3 7)))
 (let (($x6470 (= cell_3_3 6)))
 (let (($x6892 (= cell_3_3 5)))
 (let (($x2467 (= cell_3_3 4)))
 (let (($x9324 (= cell_3_3 3)))
 (let (($x3801 (= cell_3_3 2)))
 (let (($x6554 (= cell_3_3 1)))
 (or $x6554 $x3801 $x9324 $x2467 $x6892 $x6470 $x8206 $x6162 $x297)))))))))))
(assert
 (let (($x8019 (= cell_4_3 9)))
 (let (($x2092 (= cell_4_3 8)))
 (let (($x8405 (= cell_4_3 7)))
 (let (($x4426 (= cell_4_3 6)))
 (let (($x7275 (= cell_4_3 5)))
 (let (($x8528 (= cell_4_3 4)))
 (let (($x8085 (= cell_4_3 3)))
 (let (($x7103 (= cell_4_3 2)))
 (let (($x7407 (= cell_4_3 1)))
 (or $x7407 $x7103 $x8085 $x8528 $x7275 $x4426 $x8405 $x2092 $x8019)))))))))))
(assert
 (let (($x1773 (= cell_5_3 1)))
 (or $x1773 (= cell_5_3 2) (= cell_5_3 3) (= cell_5_3 4) (= cell_5_3 5) (= cell_5_3 6) (= cell_5_3 7) (= cell_5_3 8) (= cell_5_3 9))))
(assert
 (let (($x8913 (= cell_6_3 9)))
 (let (($x9885 (= cell_6_3 8)))
 (let (($x2219 (= cell_6_3 7)))
 (let (($x3811 (= cell_6_3 6)))
 (let (($x3355 (= cell_6_3 5)))
 (let (($x2818 (= cell_6_3 4)))
 (let (($x2996 (= cell_6_3 3)))
 (let (($x5648 (= cell_6_3 2)))
 (let (($x283 (= cell_6_3 1)))
 (or $x283 $x5648 $x2996 $x2818 $x3355 $x3811 $x2219 $x9885 $x8913)))))))))))
(assert
 (let (($x5424 (= cell_7_3 9)))
 (let (($x8716 (= cell_7_3 8)))
 (let (($x2407 (= cell_7_3 7)))
 (let (($x3257 (= cell_7_3 6)))
 (let (($x735 (= cell_7_3 5)))
 (let (($x8172 (= cell_7_3 4)))
 (let (($x7553 (= cell_7_3 3)))
 (let (($x6408 (= cell_7_3 2)))
 (let (($x4709 (= cell_7_3 1)))
 (or $x4709 $x6408 $x7553 $x8172 $x735 $x3257 $x2407 $x8716 $x5424)))))))))))
(assert
 (let (($x1689 (= cell_8_3 9)))
 (let (($x9978 (= cell_8_3 8)))
 (let (($x6669 (= cell_8_3 7)))
 (let (($x4712 (= cell_8_3 6)))
 (let (($x7827 (= cell_8_3 5)))
 (let (($x3972 (= cell_8_3 4)))
 (let (($x4872 (= cell_8_3 3)))
 (let (($x3487 (= cell_8_3 2)))
 (let (($x2477 (= cell_8_3 1)))
 (or $x2477 $x3487 $x4872 $x3972 $x7827 $x4712 $x6669 $x9978 $x1689)))))))))))
(assert
 (let (($x2579 (= cell_9_3 1)))
 (or $x2579 (= cell_9_3 2) (= cell_9_3 3) (= cell_9_3 4) (= cell_9_3 5) (= cell_9_3 6) (= cell_9_3 7) (= cell_9_3 8) (= cell_9_3 9))))
(assert
 (let (($x8467 (= cell_1_4 9)))
 (let (($x2944 (= cell_1_4 8)))
 (let (($x9452 (= cell_1_4 7)))
 (let (($x7470 (= cell_1_4 6)))
 (let (($x2446 (= cell_1_4 5)))
 (let (($x2509 (= cell_1_4 4)))
 (let (($x4365 (= cell_1_4 3)))
 (let (($x5401 (= cell_1_4 2)))
 (let (($x1963 (= cell_1_4 1)))
 (or $x1963 $x5401 $x4365 $x2509 $x2446 $x7470 $x9452 $x2944 $x8467)))))))))))
(assert
 (let (($x6463 (= cell_2_4 1)))
 (or $x6463 (= cell_2_4 2) (= cell_2_4 3) (= cell_2_4 4) (= cell_2_4 5) (= cell_2_4 6) (= cell_2_4 7) (= cell_2_4 8) (= cell_2_4 9))))
(assert
 (let (($x6962 (= cell_3_4 2)))
 (or (= cell_3_4 1) $x6962 (= cell_3_4 3) (= cell_3_4 4) (= cell_3_4 5) (= cell_3_4 6) (= cell_3_4 7) (= cell_3_4 8) (= cell_3_4 9))))
(assert
 (let (($x7336 (= cell_4_4 9)))
 (let (($x1745 (= cell_4_4 8)))
 (let (($x6876 (= cell_4_4 7)))
 (let (($x4380 (= cell_4_4 6)))
 (let (($x9285 (= cell_4_4 5)))
 (let (($x4762 (= cell_4_4 4)))
 (let (($x5163 (= cell_4_4 3)))
 (let (($x5250 (= cell_4_4 2)))
 (let (($x6722 (= cell_4_4 1)))
 (or $x6722 $x5250 $x5163 $x4762 $x9285 $x4380 $x6876 $x1745 $x7336)))))))))))
(assert
 (let (($x8637 (= cell_5_4 9)))
 (let (($x1231 (= cell_5_4 8)))
 (let (($x9902 (= cell_5_4 7)))
 (let (($x3447 (= cell_5_4 6)))
 (let (($x2527 (= cell_5_4 5)))
 (let (($x77 (= cell_5_4 4)))
 (let (($x4951 (= cell_5_4 3)))
 (let (($x5425 (= cell_5_4 2)))
 (let (($x5924 (= cell_5_4 1)))
 (or $x5924 $x5425 $x4951 $x77 $x2527 $x3447 $x9902 $x1231 $x8637)))))))))))
(assert
 (let (($x8175 (= cell_6_4 9)))
 (let (($x5906 (= cell_6_4 8)))
 (let (($x1082 (= cell_6_4 7)))
 (let (($x132 (= cell_6_4 6)))
 (let (($x6375 (= cell_6_4 5)))
 (let (($x8106 (= cell_6_4 4)))
 (let (($x7992 (= cell_6_4 3)))
 (let (($x8076 (= cell_6_4 2)))
 (let (($x6845 (= cell_6_4 1)))
 (or $x6845 $x8076 $x7992 $x8106 $x6375 $x132 $x1082 $x5906 $x8175)))))))))))
(assert
 (let (($x10021 (= cell_7_4 9)))
 (let (($x3004 (= cell_7_4 8)))
 (let (($x7077 (= cell_7_4 7)))
 (let (($x6826 (= cell_7_4 6)))
 (let (($x3307 (= cell_7_4 5)))
 (let (($x6874 (= cell_7_4 4)))
 (let (($x5145 (= cell_7_4 3)))
 (let (($x1465 (= cell_7_4 2)))
 (let (($x8501 (= cell_7_4 1)))
 (or $x8501 $x1465 $x5145 $x6874 $x3307 $x6826 $x7077 $x3004 $x10021)))))))))))
(assert
 (let (($x7214 (= cell_8_4 9)))
 (let (($x8794 (= cell_8_4 8)))
 (let (($x1030 (= cell_8_4 7)))
 (let (($x4888 (= cell_8_4 6)))
 (let (($x6830 (= cell_8_4 5)))
 (let (($x3054 (= cell_8_4 4)))
 (let (($x4176 (= cell_8_4 3)))
 (let (($x2279 (= cell_8_4 2)))
 (let (($x5995 (= cell_8_4 1)))
 (or $x5995 $x2279 $x4176 $x3054 $x6830 $x4888 $x1030 $x8794 $x7214)))))))))))
(assert
 (let (($x3306 (= cell_9_4 2)))
 (let (($x2209 (= cell_9_4 1)))
 (or $x2209 $x3306 (= cell_9_4 3) (= cell_9_4 4) (= cell_9_4 5) (= cell_9_4 6) (= cell_9_4 7) (= cell_9_4 8) (= cell_9_4 9)))))
(assert
 (let (($x178 (= cell_1_5 9)))
 (let (($x7844 (= cell_1_5 8)))
 (let (($x8760 (= cell_1_5 7)))
 (let (($x2056 (= cell_1_5 6)))
 (let (($x2085 (= cell_1_5 5)))
 (let (($x3118 (= cell_1_5 4)))
 (let (($x3821 (= cell_1_5 3)))
 (let (($x9523 (= cell_1_5 2)))
 (let (($x5750 (= cell_1_5 1)))
 (or $x5750 $x9523 $x3821 $x3118 $x2085 $x2056 $x8760 $x7844 $x178)))))))))))
(assert
 (let (($x6261 (= cell_2_5 9)))
 (let (($x1876 (= cell_2_5 8)))
 (let (($x8873 (= cell_2_5 7)))
 (let (($x9031 (= cell_2_5 6)))
 (let (($x5496 (= cell_2_5 5)))
 (let (($x3952 (= cell_2_5 4)))
 (let (($x2456 (= cell_2_5 3)))
 (let (($x7506 (= cell_2_5 2)))
 (let (($x3745 (= cell_2_5 1)))
 (or $x3745 $x7506 $x2456 $x3952 $x5496 $x9031 $x8873 $x1876 $x6261)))))))))))
(assert
 (let (($x1570 (= cell_3_5 9)))
 (let (($x10094 (= cell_3_5 8)))
 (let (($x6990 (= cell_3_5 7)))
 (let (($x6612 (= cell_3_5 6)))
 (let (($x6903 (= cell_3_5 5)))
 (let (($x6939 (= cell_3_5 4)))
 (let (($x4163 (= cell_3_5 3)))
 (let (($x8195 (= cell_3_5 2)))
 (let (($x6928 (= cell_3_5 1)))
 (or $x6928 $x8195 $x4163 $x6939 $x6903 $x6612 $x6990 $x10094 $x1570)))))))))))
(assert
 (let (($x7845 (= cell_4_5 9)))
 (let (($x8381 (= cell_4_5 8)))
 (let (($x6653 (= cell_4_5 7)))
 (let (($x9672 (= cell_4_5 6)))
 (let (($x659 (= cell_4_5 5)))
 (let (($x5405 (= cell_4_5 4)))
 (let (($x8417 (= cell_4_5 3)))
 (let (($x10064 (= cell_4_5 2)))
 (let (($x4589 (= cell_4_5 1)))
 (or $x4589 $x10064 $x8417 $x5405 $x659 $x9672 $x6653 $x8381 $x7845)))))))))))
(assert
 (let (($x1018 (= cell_5_5 9)))
 (let (($x3723 (= cell_5_5 8)))
 (let (($x5064 (= cell_5_5 7)))
 (let (($x7581 (= cell_5_5 6)))
 (let (($x1763 (= cell_5_5 5)))
 (let (($x6883 (= cell_5_5 4)))
 (let (($x8902 (= cell_5_5 3)))
 (let (($x6706 (= cell_5_5 2)))
 (let (($x7172 (= cell_5_5 1)))
 (or $x7172 $x6706 $x8902 $x6883 $x1763 $x7581 $x5064 $x3723 $x1018)))))))))))
(assert
 (let (($x7246 (= cell_6_5 9)))
 (let (($x1395 (= cell_6_5 8)))
 (let (($x5351 (= cell_6_5 7)))
 (let (($x9914 (= cell_6_5 6)))
 (let (($x761 (= cell_6_5 5)))
 (let (($x3921 (= cell_6_5 4)))
 (let (($x9779 (= cell_6_5 3)))
 (let (($x3588 (= cell_6_5 2)))
 (let (($x3454 (= cell_6_5 1)))
 (or $x3454 $x3588 $x9779 $x3921 $x761 $x9914 $x5351 $x1395 $x7246)))))))))))
(assert
 (let (($x4736 (= cell_7_5 1)))
 (or $x4736 (= cell_7_5 2) (= cell_7_5 3) (= cell_7_5 4) (= cell_7_5 5) (= cell_7_5 6) (= cell_7_5 7) (= cell_7_5 8) (= cell_7_5 9))))
(assert
 (let (($x6158 (= cell_8_5 9)))
 (let (($x8914 (= cell_8_5 8)))
 (let (($x7996 (= cell_8_5 7)))
 (let (($x9250 (= cell_8_5 6)))
 (let (($x6969 (= cell_8_5 5)))
 (let (($x859 (= cell_8_5 4)))
 (let (($x4875 (= cell_8_5 3)))
 (let (($x1247 (= cell_8_5 2)))
 (let (($x5189 (= cell_8_5 1)))
 (or $x5189 $x1247 $x4875 $x859 $x6969 $x9250 $x7996 $x8914 $x6158)))))))))))
(assert
 (let (($x2065 (= cell_9_5 1)))
 (or $x2065 (= cell_9_5 2) (= cell_9_5 3) (= cell_9_5 4) (= cell_9_5 5) (= cell_9_5 6) (= cell_9_5 7) (= cell_9_5 8) (= cell_9_5 9))))
(assert
 (let (($x4841 (= cell_1_6 9)))
 (let (($x8141 (= cell_1_6 8)))
 (let (($x2774 (= cell_1_6 7)))
 (let (($x4461 (= cell_1_6 6)))
 (let (($x9052 (= cell_1_6 5)))
 (let (($x6550 (= cell_1_6 4)))
 (let (($x3190 (= cell_1_6 3)))
 (let (($x4693 (= cell_1_6 2)))
 (let (($x6747 (= cell_1_6 1)))
 (or $x6747 $x4693 $x3190 $x6550 $x9052 $x4461 $x2774 $x8141 $x4841)))))))))))
(assert
 (let (($x1943 (= cell_2_6 9)))
 (let (($x958 (= cell_2_6 8)))
 (let (($x66 (= cell_2_6 7)))
 (let (($x2044 (= cell_2_6 6)))
 (let (($x6589 (= cell_2_6 5)))
 (let (($x2930 (= cell_2_6 4)))
 (let (($x7201 (= cell_2_6 3)))
 (let (($x806 (= cell_2_6 2)))
 (let (($x748 (= cell_2_6 1)))
 (or $x748 $x806 $x7201 $x2930 $x6589 $x2044 $x66 $x958 $x1943)))))))))))
(assert
 (let (($x3258 (= cell_3_6 9)))
 (let (($x6693 (= cell_3_6 8)))
 (let (($x7056 (= cell_3_6 7)))
 (let (($x4743 (= cell_3_6 6)))
 (let (($x5877 (= cell_3_6 5)))
 (let (($x6466 (= cell_3_6 4)))
 (let (($x4544 (= cell_3_6 3)))
 (let (($x6502 (= cell_3_6 2)))
 (let (($x8791 (= cell_3_6 1)))
 (or $x8791 $x6502 $x4544 $x6466 $x5877 $x4743 $x7056 $x6693 $x3258)))))))))))
(assert
 (let (($x1150 (= cell_4_6 2)))
 (or (= cell_4_6 1) $x1150 (= cell_4_6 3) (= cell_4_6 4) (= cell_4_6 5) (= cell_4_6 6) (= cell_4_6 7) (= cell_4_6 8) (= cell_4_6 9))))
(assert
 (let (($x2729 (= cell_5_6 9)))
 (let (($x3039 (= cell_5_6 8)))
 (let (($x5965 (= cell_5_6 7)))
 (let (($x8689 (= cell_5_6 6)))
 (let (($x3095 (= cell_5_6 5)))
 (let (($x5097 (= cell_5_6 4)))
 (let (($x2910 (= cell_5_6 3)))
 (let (($x693 (= cell_5_6 2)))
 (let (($x9607 (= cell_5_6 1)))
 (or $x9607 $x693 $x2910 $x5097 $x3095 $x8689 $x5965 $x3039 $x2729)))))))))))
(assert
 (let (($x5613 (= cell_6_6 1)))
 (or $x5613 (= cell_6_6 2) (= cell_6_6 3) (= cell_6_6 4) (= cell_6_6 5) (= cell_6_6 6) (= cell_6_6 7) (= cell_6_6 8) (= cell_6_6 9))))
(assert
 (let (($x5335 (= cell_7_6 2)))
 (let (($x6225 (= cell_7_6 1)))
 (or $x6225 $x5335 (= cell_7_6 3) (= cell_7_6 4) (= cell_7_6 5) (= cell_7_6 6) (= cell_7_6 7) (= cell_7_6 8) (= cell_7_6 9)))))
(assert
 (let (($x1544 (= cell_8_6 9)))
 (let (($x8398 (= cell_8_6 8)))
 (let (($x3585 (= cell_8_6 7)))
 (let (($x1035 (= cell_8_6 6)))
 (let (($x6065 (= cell_8_6 5)))
 (let (($x1760 (= cell_8_6 4)))
 (let (($x1906 (= cell_8_6 3)))
 (let (($x26 (= cell_8_6 2)))
 (let (($x2267 (= cell_8_6 1)))
 (or $x2267 $x26 $x1906 $x1760 $x6065 $x1035 $x3585 $x8398 $x1544)))))))))))
(assert
 (let (($x4755 (= cell_9_6 2)))
 (let (($x9986 (= cell_9_6 1)))
 (or $x9986 $x4755 (= cell_9_6 3) (= cell_9_6 4) (= cell_9_6 5) (= cell_9_6 6) (= cell_9_6 7) (= cell_9_6 8) (= cell_9_6 9)))))
(assert
 (let (($x5755 (= cell_1_7 1)))
 (or $x5755 (= cell_1_7 2) (= cell_1_7 3) (= cell_1_7 4) (= cell_1_7 5) (= cell_1_7 6) (= cell_1_7 7) (= cell_1_7 8) (= cell_1_7 9))))
(assert
 (let (($x3961 (= cell_2_7 2)))
 (let (($x9787 (= cell_2_7 1)))
 (or $x9787 $x3961 (= cell_2_7 3) (= cell_2_7 4) (= cell_2_7 5) (= cell_2_7 6) (= cell_2_7 7) (= cell_2_7 8) (= cell_2_7 9)))))
(assert
 (let (($x1538 (= cell_3_7 9)))
 (let (($x8169 (= cell_3_7 8)))
 (let (($x4920 (= cell_3_7 7)))
 (let (($x787 (= cell_3_7 6)))
 (let (($x6109 (= cell_3_7 5)))
 (let (($x5644 (= cell_3_7 4)))
 (let (($x2414 (= cell_3_7 3)))
 (let (($x3591 (= cell_3_7 2)))
 (let (($x4319 (= cell_3_7 1)))
 (or $x4319 $x3591 $x2414 $x5644 $x6109 $x787 $x4920 $x8169 $x1538)))))))))))
(assert
 (let (($x6395 (= cell_4_7 9)))
 (let (($x5514 (= cell_4_7 8)))
 (let (($x5487 (= cell_4_7 7)))
 (let (($x3387 (= cell_4_7 6)))
 (let (($x1219 (= cell_4_7 5)))
 (let (($x8779 (= cell_4_7 4)))
 (let (($x4354 (= cell_4_7 3)))
 (let (($x7068 (= cell_4_7 2)))
 (let (($x3293 (= cell_4_7 1)))
 (or $x3293 $x7068 $x4354 $x8779 $x1219 $x3387 $x5487 $x5514 $x6395)))))))))))
(assert
 (let (($x6398 (= cell_5_7 2)))
 (let (($x3639 (= cell_5_7 1)))
 (or $x3639 $x6398 (= cell_5_7 3) (= cell_5_7 4) (= cell_5_7 5) (= cell_5_7 6) (= cell_5_7 7) (= cell_5_7 8) (= cell_5_7 9)))))
(assert
 (let (($x7881 (= cell_6_7 9)))
 (let (($x103 (= cell_6_7 8)))
 (let (($x7218 (= cell_6_7 7)))
 (let (($x4722 (= cell_6_7 6)))
 (let (($x3970 (= cell_6_7 5)))
 (let (($x5790 (= cell_6_7 4)))
 (let (($x2759 (= cell_6_7 3)))
 (let (($x8014 (= cell_6_7 2)))
 (let (($x135 (= cell_6_7 1)))
 (or $x135 $x8014 $x2759 $x5790 $x3970 $x4722 $x7218 $x103 $x7881)))))))))))
(assert
 (let (($x2985 (= cell_7_7 9)))
 (let (($x7935 (= cell_7_7 8)))
 (let (($x6376 (= cell_7_7 7)))
 (let (($x9706 (= cell_7_7 6)))
 (let (($x7270 (= cell_7_7 5)))
 (let (($x3176 (= cell_7_7 4)))
 (let (($x8580 (= cell_7_7 3)))
 (let (($x6041 (= cell_7_7 2)))
 (let (($x8684 (= cell_7_7 1)))
 (or $x8684 $x6041 $x8580 $x3176 $x7270 $x9706 $x6376 $x7935 $x2985)))))))))))
(assert
 (let (($x8863 (= cell_8_7 9)))
 (let (($x8900 (= cell_8_7 8)))
 (let (($x2420 (= cell_8_7 7)))
 (let (($x9435 (= cell_8_7 6)))
 (let (($x3429 (= cell_8_7 5)))
 (let (($x5799 (= cell_8_7 4)))
 (let (($x8788 (= cell_8_7 3)))
 (let (($x9788 (= cell_8_7 2)))
 (let (($x10009 (= cell_8_7 1)))
 (or $x10009 $x9788 $x8788 $x5799 $x3429 $x9435 $x2420 $x8900 $x8863)))))))))))
(assert
 (let (($x8939 (= cell_9_7 1)))
 (or $x8939 (= cell_9_7 2) (= cell_9_7 3) (= cell_9_7 4) (= cell_9_7 5) (= cell_9_7 6) (= cell_9_7 7) (= cell_9_7 8) (= cell_9_7 9))))
(assert
 (let (($x5422 (= cell_1_8 2)))
 (or (= cell_1_8 1) $x5422 (= cell_1_8 3) (= cell_1_8 4) (= cell_1_8 5) (= cell_1_8 6) (= cell_1_8 7) (= cell_1_8 8) (= cell_1_8 9))))
(assert
 (let (($x4058 (= cell_2_8 9)))
 (let (($x6011 (= cell_2_8 8)))
 (let (($x9299 (= cell_2_8 7)))
 (let (($x2989 (= cell_2_8 6)))
 (let (($x589 (= cell_2_8 5)))
 (let (($x7687 (= cell_2_8 4)))
 (let (($x9775 (= cell_2_8 3)))
 (let (($x7438 (= cell_2_8 2)))
 (let (($x6430 (= cell_2_8 1)))
 (or $x6430 $x7438 $x9775 $x7687 $x589 $x2989 $x9299 $x6011 $x4058)))))))))))
(assert
 (let (($x7628 (= cell_3_8 9)))
 (let (($x7101 (= cell_3_8 8)))
 (let (($x1908 (= cell_3_8 7)))
 (let (($x2362 (= cell_3_8 6)))
 (let (($x5603 (= cell_3_8 5)))
 (let (($x9886 (= cell_3_8 4)))
 (let (($x2188 (= cell_3_8 3)))
 (let (($x6068 (= cell_3_8 2)))
 (let (($x4190 (= cell_3_8 1)))
 (or $x4190 $x6068 $x2188 $x9886 $x5603 $x2362 $x1908 $x7101 $x7628)))))))))))
(assert
 (let (($x3349 (= cell_4_8 1)))
 (or $x3349 (= cell_4_8 2) (= cell_4_8 3) (= cell_4_8 4) (= cell_4_8 5) (= cell_4_8 6) (= cell_4_8 7) (= cell_4_8 8) (= cell_4_8 9))))
(assert
 (let (($x9102 (= cell_5_8 2)))
 (let (($x5617 (= cell_5_8 1)))
 (or $x5617 $x9102 (= cell_5_8 3) (= cell_5_8 4) (= cell_5_8 5) (= cell_5_8 6) (= cell_5_8 7) (= cell_5_8 8) (= cell_5_8 9)))))
(assert
 (let (($x6459 (= cell_6_8 2)))
 (let (($x8283 (= cell_6_8 1)))
 (or $x8283 $x6459 (= cell_6_8 3) (= cell_6_8 4) (= cell_6_8 5) (= cell_6_8 6) (= cell_6_8 7) (= cell_6_8 8) (= cell_6_8 9)))))
(assert
 (let (($x4135 (= cell_7_8 9)))
 (let (($x908 (= cell_7_8 8)))
 (let (($x1551 (= cell_7_8 7)))
 (let (($x9 (= cell_7_8 6)))
 (let (($x5034 (= cell_7_8 5)))
 (let (($x511 (= cell_7_8 4)))
 (let (($x2825 (= cell_7_8 3)))
 (let (($x5066 (= cell_7_8 2)))
 (let (($x8051 (= cell_7_8 1)))
 (or $x8051 $x5066 $x2825 $x511 $x5034 $x9 $x1551 $x908 $x4135)))))))))))
(assert
 (let (($x2718 (= cell_8_8 9)))
 (let (($x6249 (= cell_8_8 8)))
 (let (($x5432 (= cell_8_8 7)))
 (let (($x4310 (= cell_8_8 6)))
 (let (($x3067 (= cell_8_8 5)))
 (let (($x2531 (= cell_8_8 4)))
 (let (($x8045 (= cell_8_8 3)))
 (let (($x8462 (= cell_8_8 2)))
 (let (($x6718 (= cell_8_8 1)))
 (or $x6718 $x8462 $x8045 $x2531 $x3067 $x4310 $x5432 $x6249 $x2718)))))))))))
(assert
 (let (($x5749 (= cell_9_8 2)))
 (let (($x6503 (= cell_9_8 1)))
 (or $x6503 $x5749 (= cell_9_8 3) (= cell_9_8 4) (= cell_9_8 5) (= cell_9_8 6) (= cell_9_8 7) (= cell_9_8 8) (= cell_9_8 9)))))
(assert
 (let (($x7419 (= cell_1_9 9)))
 (let (($x8725 (= cell_1_9 8)))
 (let (($x3299 (= cell_1_9 7)))
 (let (($x5408 (= cell_1_9 6)))
 (let (($x7651 (= cell_1_9 5)))
 (let (($x512 (= cell_1_9 4)))
 (let (($x7202 (= cell_1_9 3)))
 (let (($x7066 (= cell_1_9 2)))
 (let (($x5733 (= cell_1_9 1)))
 (or $x5733 $x7066 $x7202 $x512 $x7651 $x5408 $x3299 $x8725 $x7419)))))))))))
(assert
 (let (($x534 (= cell_2_9 9)))
 (let (($x5093 (= cell_2_9 8)))
 (let (($x10099 (= cell_2_9 7)))
 (let (($x6441 (= cell_2_9 6)))
 (let (($x8220 (= cell_2_9 5)))
 (let (($x465 (= cell_2_9 4)))
 (let (($x9382 (= cell_2_9 3)))
 (let (($x4824 (= cell_2_9 2)))
 (let (($x459 (= cell_2_9 1)))
 (or $x459 $x4824 $x9382 $x465 $x8220 $x6441 $x10099 $x5093 $x534)))))))))))
(assert
 (let (($x5433 (= cell_3_9 9)))
 (let (($x1808 (= cell_3_9 8)))
 (let (($x7642 (= cell_3_9 7)))
 (let (($x2119 (= cell_3_9 6)))
 (let (($x5521 (= cell_3_9 5)))
 (let (($x7627 (= cell_3_9 4)))
 (let (($x3290 (= cell_3_9 3)))
 (let (($x5915 (= cell_3_9 2)))
 (let (($x8152 (= cell_3_9 1)))
 (or $x8152 $x5915 $x3290 $x7627 $x5521 $x2119 $x7642 $x1808 $x5433)))))))))))
(assert
 (let (($x2381 (= cell_4_9 9)))
 (let (($x8583 (= cell_4_9 8)))
 (let (($x6931 (= cell_4_9 7)))
 (let (($x1420 (= cell_4_9 6)))
 (let (($x7476 (= cell_4_9 5)))
 (let (($x974 (= cell_4_9 4)))
 (let (($x123 (= cell_4_9 3)))
 (let (($x8286 (= cell_4_9 2)))
 (let (($x2026 (= cell_4_9 1)))
 (or $x2026 $x8286 $x123 $x974 $x7476 $x1420 $x6931 $x8583 $x2381)))))))))))
(assert
 (let (($x7694 (= cell_5_9 9)))
 (let (($x9743 (= cell_5_9 8)))
 (let (($x7265 (= cell_5_9 7)))
 (let (($x9717 (= cell_5_9 6)))
 (let (($x5311 (= cell_5_9 5)))
 (let (($x113 (= cell_5_9 4)))
 (let (($x1967 (= cell_5_9 3)))
 (let (($x2348 (= cell_5_9 2)))
 (let (($x9778 (= cell_5_9 1)))
 (or $x9778 $x2348 $x1967 $x113 $x5311 $x9717 $x7265 $x9743 $x7694)))))))))))
(assert
 (let (($x6551 (= cell_6_9 9)))
 (let (($x3469 (= cell_6_9 8)))
 (let (($x6732 (= cell_6_9 7)))
 (let (($x5290 (= cell_6_9 6)))
 (let (($x9542 (= cell_6_9 5)))
 (let (($x960 (= cell_6_9 4)))
 (let (($x794 (= cell_6_9 3)))
 (let (($x2184 (= cell_6_9 2)))
 (let (($x8227 (= cell_6_9 1)))
 (or $x8227 $x2184 $x794 $x960 $x9542 $x5290 $x6732 $x3469 $x6551)))))))))))
(assert
 (let (($x2052 (= cell_7_9 9)))
 (let (($x4352 (= cell_7_9 8)))
 (let (($x7004 (= cell_7_9 7)))
 (let (($x623 (= cell_7_9 6)))
 (let (($x3738 (= cell_7_9 5)))
 (let (($x275 (= cell_7_9 4)))
 (let (($x8006 (= cell_7_9 3)))
 (let (($x6625 (= cell_7_9 2)))
 (let (($x5180 (= cell_7_9 1)))
 (or $x5180 $x6625 $x8006 $x275 $x3738 $x623 $x7004 $x4352 $x2052)))))))))))
(assert
 (let (($x2278 (= cell_8_9 1)))
 (or $x2278 (= cell_8_9 2) (= cell_8_9 3) (= cell_8_9 4) (= cell_8_9 5) (= cell_8_9 6) (= cell_8_9 7) (= cell_8_9 8) (= cell_8_9 9))))
(assert
 (let (($x8832 (= cell_9_9 1)))
 (or $x8832 (= cell_9_9 2) (= cell_9_9 3) (= cell_9_9 4) (= cell_9_9 5) (= cell_9_9 6) (= cell_9_9 7) (= cell_9_9 8) (= cell_9_9 9))))
(assert
 (and (distinct cell_1_1 cell_1_2 cell_1_3 cell_1_4 cell_1_5 cell_1_6 cell_1_7 cell_1_8 cell_1_9) true))
(assert
 (and (distinct cell_2_1 cell_2_2 cell_2_3 cell_2_4 cell_2_5 cell_2_6 cell_2_7 cell_2_8 cell_2_9) true))
(assert
 (and (distinct cell_3_1 cell_3_2 cell_3_3 cell_3_4 cell_3_5 cell_3_6 cell_3_7 cell_3_8 cell_3_9) true))
(assert
 (and (distinct cell_4_1 cell_4_2 cell_4_3 cell_4_4 cell_4_5 cell_4_6 cell_4_7 cell_4_8 cell_4_9) true))
(assert
 (and (distinct cell_5_1 cell_5_2 cell_5_3 cell_5_4 cell_5_5 cell_5_6 cell_5_7 cell_5_8 cell_5_9) true))
(assert
 (and (distinct cell_6_1 cell_6_2 cell_6_3 cell_6_4 cell_6_5 cell_6_6 cell_6_7 cell_6_8 cell_6_9) true))
(assert
 (and (distinct cell_7_1 cell_7_2 cell_7_3 cell_7_4 cell_7_5 cell_7_6 cell_7_7 cell_7_8 cell_7_9) true))
(assert
 (and (distinct cell_8_1 cell_8_2 cell_8_3 cell_8_4 cell_8_5 cell_8_6 cell_8_7 cell_8_8 cell_8_9) true))
(assert
 (and (distinct cell_9_1 cell_9_2 cell_9_3 cell_9_4 cell_9_5 cell_9_6 cell_9_7 cell_9_8 cell_9_9) true))
(assert
 (and (distinct cell_1_1 cell_2_1 cell_3_1 cell_4_1 cell_5_1 cell_6_1 cell_7_1 cell_8_1 cell_9_1) true))
(assert
 (and (distinct cell_1_2 cell_2_2 cell_3_2 cell_4_2 cell_5_2 cell_6_2 cell_7_2 cell_8_2 cell_9_2) true))
(assert
 (and (distinct cell_1_3 cell_2_3 cell_3_3 cell_4_3 cell_5_3 cell_6_3 cell_7_3 cell_8_3 cell_9_3) true))
(assert
 (and (distinct cell_1_4 cell_2_4 cell_3_4 cell_4_4 cell_5_4 cell_6_4 cell_7_4 cell_8_4 cell_9_4) true))
(assert
 (and (distinct cell_1_5 cell_2_5 cell_3_5 cell_4_5 cell_5_5 cell_6_5 cell_7_5 cell_8_5 cell_9_5) true))
(assert
 (and (distinct cell_1_6 cell_2_6 cell_3_6 cell_4_6 cell_5_6 cell_6_6 cell_7_6 cell_8_6 cell_9_6) true))
(assert
 (and (distinct cell_1_7 cell_2_7 cell_3_7 cell_4_7 cell_5_7 cell_6_7 cell_7_7 cell_8_7 cell_9_7) true))
(assert
 (and (distinct cell_1_8 cell_2_8 cell_3_8 cell_4_8 cell_5_8 cell_6_8 cell_7_8 cell_8_8 cell_9_8) true))
(assert
 (and (distinct cell_1_9 cell_2_9 cell_3_9 cell_4_9 cell_5_9 cell_6_9 cell_7_9 cell_8_9 cell_9_9) true))
(assert
 (and (distinct cell_1_1 cell_1_2 cell_1_3 cell_2_1 cell_2_2 cell_2_3 cell_3_1 cell_3_2 cell_3_3) true))
(assert
 (and (distinct cell_1_4 cell_1_5 cell_1_6 cell_2_4 cell_2_5 cell_2_6 cell_3_4 cell_3_5 cell_3_6) true))
(assert
 (and (distinct cell_1_7 cell_1_8 cell_1_9 cell_2_7 cell_2_8 cell_2_9 cell_3_7 cell_3_8 cell_3_9) true))
(assert
 (and (distinct cell_4_1 cell_4_2 cell_4_3 cell_5_1 cell_5_2 cell_5_3 cell_6_1 cell_6_2 cell_6_3) true))
(assert
 (and (distinct cell_4_4 cell_4_5 cell_4_6 cell_5_4 cell_5_5 cell_5_6 cell_6_4 cell_6_5 cell_6_6) true))
(assert
 (and (distinct cell_4_7 cell_4_8 cell_4_9 cell_5_7 cell_5_8 cell_5_9 cell_6_7 cell_6_8 cell_6_9) true))
(assert
 (and (distinct cell_7_1 cell_7_2 cell_7_3 cell_8_1 cell_8_2 cell_8_3 cell_9_1 cell_9_2 cell_9_3) true))
(assert
 (and (distinct cell_7_4 cell_7_5 cell_7_6 cell_8_4 cell_8_5 cell_8_6 cell_9_4 cell_9_5 cell_9_6) true))
(assert
 (and (distinct cell_7_7 cell_7_8 cell_7_9 cell_8_7 cell_8_8 cell_8_9 cell_9_7 cell_9_8 cell_9_9) true))
(assert
 (let (($x1754 (and (distinct cell_5_9 cell_6_8 cell_7_7 cell_8_6) true)))
 (let (($x8820 (and (distinct cell_2_9 cell_3_8 cell_4_7 cell_5_6 cell_6_5 cell_7_4 cell_8_3 cell_9_2) true)))
 (let (($x1793 (and (distinct cell_1_8 cell_2_7 cell_3_6 cell_4_5 cell_5_4 cell_6_3 cell_7_2 cell_8_1) true)))
 (let (($x410 (and (distinct cell_1_5 cell_2_4 cell_3_3 cell_4_2) true)))
 (let (($x5665 (and (distinct cell_5_1 cell_6_2 cell_7_3 cell_8_4) true)))
 (let (($x8361 (and (distinct cell_2_1 cell_3_2 cell_4_3 cell_5_4 cell_6_5 cell_7_6 cell_8_7 cell_9_8) true)))
 (let (($x7748 (and (distinct cell_1_2 cell_2_3 cell_3_4 cell_4_5 cell_5_6 cell_6_7 cell_7_8 cell_8_9) true)))
 (let (($x421 (and (distinct cell_1_5 cell_2_6 cell_3_7 cell_4_8) true)))
 (and $x421 $x7748 $x8361 $x5665 $x410 $x1793 $x8820 $x1754))))))))))
(assert
 (= cell_6_9 2))
(check-sat)
